57  57  57  57  -1  
60  60  60  60  -1  
44  44  44  44  -1  
46  46  46  46  -1  
32  32  32  32  -1  
51  51  51  51  -1  
44  44  44  44  -1  
52  52  52  52  -1  
75  75  75  75  -1  
40  40  40  40  -1  
54  54  54  54  -1  
31  31  31  31  -1  
42  42  42  42  -1  
56  56  56  56  -1  
59  59  59  59  -1  
